(Dy2 Ti2 O7)2  (P1) ~ 58 minimized: 57_minimized: (Dy2 Ti2 O7)2_GGA-PBE_PP=OTisvDy3_P1_600eV_444kmesh_Relax atom_position_ (VASP)
    1.0
            7.18321277 0.00000000 0.00000000 
            3.59160639 6.22084474 0.00000000 
            3.59160639 2.07361492 5.86506867 
  4 4 14
Direct
        0.50000000 0.50000000 0.50000000
        0.00000000 0.50000000 0.50000000
        0.50000000 0.00000000 0.50000000
        0.50000000 0.50000000 0.00000000
        0.00000000 0.00000000 0.00000000
        0.50000000 0.00000000 0.00000000
        0.00000000 0.50000000 0.00000000
        0.00000000 0.00000000 0.50000000
        0.91988191 0.33011809 0.33011809
        0.33011809 0.91988191 0.91988191
        0.33011809 0.33011809 0.91988191
        0.91988191 0.91988191 0.33011809
        0.33011809 0.91988191 0.33011809
        0.91988191 0.33011809 0.91988191
        0.66988191 0.08011809 0.66988191
        0.08011809 0.66988191 0.08011809
        0.08011809 0.66988191 0.66988191
        0.66988191 0.08011809 0.08011809
        0.66988191 0.66988191 0.08011809
        0.08011809 0.08011809 0.66988191
        0.37500000 0.37500000 0.37500000
        0.62500000 0.62500000 0.62500000
