NU_64_Atoms_N_Disp_0.0A
    1.0
            9.72814507 0.00000000 0.00000000 
            0.00000000 9.72814507 0.00000000 
            0.00000000 0.00000000 9.72814507 
  32 32
Direct
        0.00000000 0.00000000 0.00000000
        0.00000000 0.25000000 0.25000000
        0.25000000 0.00000000 0.25000000
        0.25000000 0.25000000 0.00000000
        0.00000000 0.00000000 0.50000000
        0.00000000 0.25000000 0.75000000
        0.25000000 0.00000000 0.75000000
        0.25000000 0.25000000 0.50000000
        0.00000000 0.50000000 0.00000000
        0.00000000 0.75000000 0.25000000
        0.25000000 0.50000000 0.25000000
        0.25000000 0.75000000 0.00000000
        0.00000000 0.50000000 0.50000000
        0.00000000 0.75000000 0.75000000
        0.25000000 0.50000000 0.75000000
        0.25000000 0.75000000 0.50000000
        0.50000000 0.00000000 0.00000000
        0.50000000 0.25000000 0.25000000
        0.75000000 0.00000000 0.25000000
        0.75000000 0.25000000 0.00000000
        0.50000000 0.00000000 0.50000000
        0.50000000 0.25000000 0.75000000
        0.75000000 0.00000000 0.75000000
        0.75000000 0.25000000 0.50000000
        0.50000000 0.50000000 0.00000000
        0.50000000 0.75000000 0.25000000
        0.75000000 0.50000000 0.25000000
        0.75000000 0.75000000 0.00000000
        xxxxxxxxxx yyyyyyyyyy 0.50000000
        0.50000000 0.75000000 0.75000000
        0.75000000 0.50000000 0.75000000
        0.75000000 0.75000000 0.50000000
        0.25000000 0.25000000 0.25000000
        0.25000000 0.00000000 0.00000000
        0.00000000 0.25000000 0.00000000
        0.00000000 0.00000000 0.25000000
        0.25000000 0.25000000 0.75000000
        0.25000000 0.00000000 0.50000000
        0.00000000 0.25000000 0.50000000
        0.00000000 0.00000000 0.75000000
        0.25000000 0.75000000 0.25000000
        0.25000000 0.50000000 0.00000000
        0.00000000 0.75000000 0.00000000
        0.00000000 0.50000000 0.25000000
        0.25000000 0.75000000 0.75000000
        0.25000000 0.50000000 0.50000000
        0.00000000 0.75000000 0.50000000
        0.00000000 0.50000000 0.75000000
        0.75000000 0.25000000 0.25000000
        0.75000000 0.00000000 0.00000000
        0.50000000 0.25000000 0.00000000
        0.50000000 0.00000000 0.25000000
        0.75000000 0.25000000 0.75000000
        0.75000000 0.00000000 0.50000000
        0.50000000 0.25000000 0.50000000
        0.50000000 0.00000000 0.75000000
        0.75000000 0.75000000 0.25000000
        0.75000000 0.50000000 0.00000000
        0.50000000 0.75000000 0.00000000
        0.50000000 0.50000000 0.25000000
        0.75000000 0.75000000 0.75000000
        0.75000000 0.50000000 0.50000000
        0.50000000 0.75000000 0.50000000
        0.50000000 0.50000000 0.75000000
